(set-logic QF_S)
(declare-fun var0 () String)
(assert (str.in.re var0 (re.++ (re.union (re.inter (re.union (re.inter (str.to.re "00") (str.to.re "11")) (re.inter (str.to.re "2") (str.to.re "33"))) (re.union (re.inter (str.to.re "444") (str.to.re "55")) (re.inter (str.to.re "66") (str.to.re "77")))) (re.inter (re.union (re.inter (str.to.re "88") (str.to.re "99")) (re.inter (str.to.re "aaa") (str.to.re "b"))) (re.union (re.inter (str.to.re "ccc") (str.to.re "d")) (re.inter (str.to.re "ee") (str.to.re "f"))))) (re.++ (re.union (re.inter (re.union (re.inter (str.to.re "g") (str.to.re "hhh")) (re.inter (str.to.re "ii") (str.to.re "jjj"))) (re.union (re.inter (str.to.re "kkk") (str.to.re "lll")) (re.inter (str.to.re "m") (str.to.re "nn")))) (re.inter (re.union (re.inter (str.to.re "o") (str.to.re "ppp")) (re.inter (str.to.re "q") (str.to.re "rrr"))) (re.union (re.inter (str.to.re "ss") (str.to.re "tt")) (re.inter (str.to.re "uuu") (str.to.re "v"))))) (re.union (re.inter (re.union (re.inter (str.to.re "ww") (str.to.re "xx")) (re.inter (str.to.re "yy") (str.to.re "zzz"))) (re.union (re.inter (str.to.re "AAA") (str.to.re "B")) (re.inter (str.to.re "CCC") (str.to.re "DD")))) (re.inter (re.union (re.inter (str.to.re "EE") (str.to.re "FFF")) (re.inter (str.to.re "GG") (str.to.re "H"))) (re.union (re.inter (str.to.re "III") (str.to.re "J")) (re.inter (str.to.re "K") (str.to.re "LLL")))))))))
(check-sat)
(get-model)
